\ENCODING=ISO-8859-1
\Problem name: IloCplex

Maximize
 obj: - 20 x1 - 15 x2 - 10 x3 - 7 x4 + 20 x5 + 8 x6 + 9 x7 + 4 x8 + x9
Subject To
 c1:  - x1 + x5 <= 26
 c2:  - x1 + x6 <= 38
 c3:  - x1 + x7 <= 67
 c4:  - x1 + x8 <= 33
 c5:  - x2 + x5 <= 29
 c6:  - x2 + x6 <= 37
 c7:  - x2 + x7 <= 39
 c8:  - x2 + x8 <= 10
 c9:  - x3 + x5 <= 27
 c10: - x3 + x6 <= 49
 c11: - x3 + x7 <= 38
 c12: - x3 + x8 <= 25
 c13: - x4 + x5 <= 19
 c14: - x4 + x6 <= 30
 c15: - x4 + x7 <= 50
 c16: - x4 + x8 <= 44
Bounds
      x9 = 0
End
